data/rand/rand_018.gr
p tdp 15 50
1 10
1 12
1 14
1 15
2 6
2 7
2 9
2 10
2 12
2 13
2 14
2 15
3 5
3 7
3 9
3 10
3 11
3 12
3 14
4 5
4 7
4 8
4 10
4 11
4 14
5 7
5 9
5 10
5 13
6 7
6 11
7 8
7 11
7 12
7 14
8 9
8 13
8 14
9 12
9 13
9 14
9 15
10 11
11 13
11 14
12 13
12 15
13 14
13 15
14 15
