solutions/best/rand/rand_018.sol
10
15
0
7
7
11
7
5
9
14
2
8
10
15
12
5
